experiment/data/lkh-res/Vrp-Set-Golden-n324/Vrp-Set-Golden-n324-lkh/0.lkh1.vrp
NAME : 0
COMMENT : CVRP Instance
TYPE : CVRP
DIMENSION : 324
EDGE_WEIGHT_TYPE : EUC_2D
CAPACITY : 1000
NODE_COORD_SECTION
1	0	-1699
2	-99	-1599
3	100	-1599
4	-199	-1499
5	0	-1499
6	200	-1499
7	-299	-1399
8	-99	-1399
9	100	-1399
10	300	-1399
11	-399	-1299
12	-199	-1299
13	0	-1299
14	200	-1299
15	400	-1299
16	-499	-1199
17	-299	-1199
18	-99	-1199
19	100	-1199
20	300	-1199
21	500	-1199
22	-599	-1099
23	-399	-1099
24	-199	-1099
25	0	-1099
26	200	-1099
27	400	-1099
28	600	-1099
29	-699	-999
30	-499	-999
31	-299	-999
32	-99	-999
33	100	-999
34	300	-999
35	500	-999
36	700	-999
37	-799	-899
38	-599	-899
39	-399	-899
40	-199	-899
41	0	-899
42	200	-899
43	400	-899
44	600	-899
45	800	-899
46	-899	-799
47	-699	-799
48	-499	-799
49	-299	-799
50	-99	-799
51	100	-799
52	300	-799
53	500	-799
54	700	-799
55	900	-799
56	-999	-699
57	-799	-699
58	-599	-699
59	-399	-699
60	-199	-699
61	0	-699
62	200	-699
63	400	-699
64	600	-699
65	800	-699
66	1000	-699
67	-1099	-599
68	-899	-599
69	-699	-599
70	-499	-599
71	-299	-599
72	-99	-599
73	100	-599
74	300	-599
75	500	-599
76	700	-599
77	900	-599
78	1100	-599
79	-1199	-499
80	-999	-499
81	-799	-499
82	-599	-499
83	-399	-499
84	-199	-499
85	0	-499
86	200	-499
87	400	-499
88	600	-499
89	800	-499
90	1000	-499
91	1200	-499
92	-1299	-399
93	-1099	-399
94	-899	-399
95	-699	-399
96	-499	-399
97	-299	-399
98	-99	-399
99	100	-399
100	300	-399
101	500	-399
102	700	-399
103	900	-399
104	1100	-399
105	1300	-399
106	-1399	-299
107	-1199	-299
108	-999	-299
109	-799	-299
110	-599	-299
111	-399	-299
112	-199	-299
113	0	-299
114	200	-299
115	400	-299
116	600	-299
117	800	-299
118	1000	-299
119	1200	-299
120	1400	-299
121	-1499	-199
122	-1299	-199
123	-1099	-199
124	-899	-199
125	-699	-199
126	-499	-199
127	-299	-199
128	-99	-199
129	100	-199
130	300	-199
131	500	-199
132	700	-199
133	900	-199
134	1100	-199
135	1300	-199
136	1500	-199
137	-1599	-99
138	-1399	-99
139	-1199	-99
140	-999	-99
141	-799	-99
142	-599	-99
143	-399	-99
144	-199	-99
145	0	-99
146	200	-99
147	400	-99
148	600	-99
149	800	-99
150	1000	-99
151	1200	-99
152	1400	-99
153	1600	-99
154	-1699	0
155	-1499	0
156	-1299	0
157	-1099	0
158	-899	0
159	-699	0
160	-499	0
161	-299	0
162	-99	0
163	100	0
164	300	0
165	500	0
166	700	0
167	900	0
168	1100	0
169	1300	0
170	1500	0
171	1700	0
172	-1599	100
173	-1399	100
174	-1199	100
175	-999	100
176	-799	100
177	-599	100
178	-399	100
179	-199	100
180	0	100
181	200	100
182	400	100
183	600	100
184	800	100
185	1000	100
186	1200	100
187	1400	100
188	1600	100
189	-1499	200
190	-1299	200
191	-1099	200
192	-899	200
193	-699	200
194	-499	200
195	-299	200
196	-99	200
197	100	200
198	300	200
199	500	200
200	700	200
201	900	200
202	1100	200
203	1300	200
204	1500	200
205	-1399	300
206	-1199	300
207	-999	300
208	-799	300
209	-599	300
210	-399	300
211	-199	300
212	0	300
213	200	300
214	400	300
215	600	300
216	800	300
217	1000	300
218	1200	300
219	1400	300
220	-1299	400
221	-1099	400
222	-899	400
223	-699	400
224	-499	400
225	-299	400
226	-99	400
227	100	400
228	300	400
229	500	400
230	700	400
231	900	400
232	1100	400
233	1300	400
234	-1199	500
235	-999	500
236	-799	500
237	-599	500
238	-399	500
239	-199	500
240	0	500
241	200	500
242	400	500
243	600	500
244	800	500
245	1000	500
246	1200	500
247	-1099	600
248	-899	600
249	-699	600
250	-499	600
251	-299	600
252	-99	600
253	100	600
254	300	600
255	500	600
256	700	600
257	900	600
258	1100	600
259	-999	700
260	-799	700
261	-599	700
262	-399	700
263	-199	700
264	0	700
265	200	700
266	400	700
267	600	700
268	800	700
269	1000	700
270	-899	800
271	-699	800
272	-499	800
273	-299	800
274	-99	800
275	100	800
276	300	800
277	500	800
278	700	800
279	900	800
280	-799	900
281	-599	900
282	-399	900
283	-199	900
284	0	900
285	200	900
286	400	900
287	600	900
288	800	900
289	-699	1000
290	-499	1000
291	-299	1000
292	-99	1000
293	100	1000
294	300	1000
295	500	1000
296	700	1000
297	-599	1100
298	-399	1100
299	-199	1100
300	0	1100
301	200	1100
302	400	1100
303	600	1100
304	-499	1200
305	-299	1200
306	-99	1200
307	100	1200
308	300	1200
309	500	1200
310	-399	1300
311	-199	1300
312	0	1300
313	200	1300
314	400	1300
315	-299	1400
316	-99	1400
317	100	1400
318	300	1400
319	-199	1500
320	0	1500
321	200	1500
322	-99	1600
323	100	1600
324	0	1700
DEMAND_SECTION
1	0
2	300
3	300
4	180
5	300
6	180
7	128
8	180
9	180
10	128
11	100
12	128
13	180
14	128
15	100
16	81
17	100
18	128
19	128
20	100
21	81
22	69
23	81
24	100
25	128
26	100
27	81
28	69
29	60
30	69
31	81
32	100
33	100
34	81
35	69
36	60
37	52
38	60
39	69
40	81
41	100
42	81
43	69
44	60
45	52
46	47
47	52
48	60
49	69
50	81
51	81
52	69
53	60
54	52
55	47
56	42
57	47
58	52
59	60
60	69
61	81
62	69
63	60
64	52
65	47
66	42
67	39
68	42
69	47
70	52
71	60
72	69
73	69
74	60
75	52
76	47
77	42
78	39
79	36
80	39
81	42
82	47
83	52
84	60
85	69
86	60
87	52
88	47
89	42
90	39
91	36
92	33
93	36
94	39
95	42
96	47
97	52
98	60
99	60
100	52
101	47
102	42
103	39
104	36
105	33
106	31
107	33
108	36
109	39
110	42
111	47
112	52
113	60
114	52
115	47
116	42
117	39
118	36
119	33
120	31
121	29
122	31
123	33
124	36
125	39
126	42
127	47
128	52
129	52
130	47
131	42
132	39
133	36
134	33
135	31
136	29
137	27
138	29
139	31
140	33
141	36
142	39
143	42
144	47
145	52
146	47
147	42
148	39
149	36
150	33
151	31
152	29
153	27
154	25
155	27
156	29
157	31
158	33
159	36
160	39
161	42
162	47
163	47
164	42
165	39
166	36
167	33
168	31
169	29
170	27
171	25
172	25
173	27
174	29
175	31
176	33
177	36
178	39
179	42
180	47
181	42
182	39
183	36
184	33
185	31
186	29
187	27
188	25
189	25
190	27
191	29
192	31
193	33
194	36
195	39
196	42
197	42
198	39
199	36
200	33
201	31
202	29
203	27
204	25
205	25
206	27
207	29
208	31
209	33
210	36
211	39
212	42
213	39
214	36
215	33
216	31
217	29
218	27
219	25
220	25
221	27
222	29
223	31
224	33
225	36
226	39
227	39
228	36
229	33
230	31
231	29
232	27
233	25
234	25
235	27
236	29
237	31
238	33
239	36
240	39
241	36
242	33
243	31
244	29
245	27
246	25
247	25
248	27
249	29
250	31
251	33
252	36
253	36
254	33
255	31
256	29
257	27
258	25
259	25
260	27
261	29
262	31
263	33
264	36
265	33
266	31
267	29
268	27
269	25
270	25
271	27
272	29
273	31
274	33
275	33
276	31
277	29
278	27
279	25
280	25
281	27
282	29
283	31
284	33
285	31
286	29
287	27
288	25
289	25
290	27
291	29
292	31
293	31
294	29
295	27
296	25
297	25
298	27
299	29
300	31
301	29
302	27
303	25
304	25
305	27
306	29
307	29
308	27
309	25
310	25
311	27
312	29
313	27
314	25
315	25
316	27
317	27
318	25
319	25
320	27
321	25
322	25
323	25
324	25
DEPOT_SECTION
1
-1
EOF
