experiment/data/lkh-res/Vrp-Set-Golden-n324/Vrp-Set-Golden-n324-lkh/0.lkh1.log
PARAMETER_FILE = baseline_results/cvrp_lkh/Vrp-Set-Golden-n324/Vrp-Set-Golden-n324-lkh/0.lkh1.par
Reading PROBLEM_FILE: "baseline_results/cvrp_lkh/Vrp-Set-Golden-n324/Vrp-Set-Golden-n324-lkh/0.lkh1.vrp" ... done
ASCENT_CANDIDATES = 50
BACKBONE_TRIALS = 0
BACKTRACKING = NO
# BWTSP =
# CANDIDATE_FILE =
CANDIDATE_SET_TYPE = ALPHA
# DISTANCE =
DEPOT = 1
# EDGE_FILE =
EXCESS = 0.00308642
EXTERNAL_SALESMEN = 0
EXTRA_CANDIDATES = 0 
EXTRA_CANDIDATE_SET_TYPE = QUADRANT
GAIN23 = NO
GAIN_CRITERION = YES
INITIAL_PERIOD = 162
INITIAL_STEP_SIZE = 1
INITIAL_TOUR_ALGORITHM = WALK
# INITIAL_TOUR_FILE = 
INITIAL_TOUR_FRACTION = 1.000
# INPUT_TOUR_FILE = 
KICK_TYPE = 4
KICKS = 1
# MAX_BREADTH =
MAKESPAN = NO
MAX_CANDIDATES = 5 
MAX_SWAPS = 0
MAX_TRIALS = 10000
# MERGE_TOUR_FILE =
MOVE_TYPE = 5 SPECIAL
MTSP_MIN_SIZE = 1
MTSP_MAX_SIZE = 323
# MTSP_SOLUTION_FILE = 
# NONSEQUENTIAL_MOVE_TYPE = 5
# OPTIMUM =
OUTPUT_TOUR_FILE = baseline_results/cvrp_lkh/Vrp-Set-Golden-n324/Vrp-Set-Golden-n324-lkh/0.lkh1.tour
PATCHING_A = 1 
PATCHING_C = 0 
# PI_FILE = 
POPMUSIC_INITIAL_TOUR = NO
POPMUSIC_MAX_NEIGHBORS = 5
POPMUSIC_SAMPLE_SIZE = 10
POPMUSIC_SOLUTIONS = 50
POPMUSIC_TRIALS = 1
POPULATION_SIZE = 10
PRECISION = 100
PROBLEM_FILE = baseline_results/cvrp_lkh/Vrp-Set-Golden-n324/Vrp-Set-Golden-n324-lkh/0.lkh1.vrp
RECOMBINATION = IPT
RESTRICTED_SEARCH = YES
RUNS = 1
SALESMEN = 16
SCALE = 1
SEED = 1234
# SINTEF_SOLUTION_FILE = 
STOP_AT_OPTIMUM = YES
SUBGRADIENT = YES
# SUBPROBLEM_SIZE =
# SUBPROBLEM_TOUR_FILE = 
SUBSEQUENT_MOVE_TYPE = 5 SPECIAL
SUBSEQUENT_PATCHING = YES
# TIME_LIMIT =
# TOTAL_TIME_LIMIT =
# TOUR_FILE = 
TRACE_LEVEL = 1
VEHICLES = 16

Lower bound = 55237.0, Ascent time = 0.13 sec.
Cand.min = 2, Cand.avg = 5.0, Cand.max = 5
Preprocessing time = 0.13 sec.
* 1: Cost = 0_80680, Time = 0.06 sec. 
Writing OUTPUT_TOUR_FILE: "baseline_results/cvrp_lkh/Vrp-Set-Golden-n324/Vrp-Set-Golden-n324-lkh/0.lkh1.tour" ... done
* 2: Cost = 0_80662, Time = 0.06 sec. 
Writing OUTPUT_TOUR_FILE: "baseline_results/cvrp_lkh/Vrp-Set-Golden-n324/Vrp-Set-Golden-n324-lkh/0.lkh1.tour" ... done
* 3: Cost = 0_80544, Time = 0.06 sec. 
Writing OUTPUT_TOUR_FILE: "baseline_results/cvrp_lkh/Vrp-Set-Golden-n324/Vrp-Set-Golden-n324-lkh/0.lkh1.tour" ... done
* 6: Cost = 0_80031, Time = 0.08 sec. 
Writing OUTPUT_TOUR_FILE: "baseline_results/cvrp_lkh/Vrp-Set-Golden-n324/Vrp-Set-Golden-n324-lkh/0.lkh1.tour" ... done
* 7: Cost = 0_79306, Time = 0.10 sec. 
Writing OUTPUT_TOUR_FILE: "baseline_results/cvrp_lkh/Vrp-Set-Golden-n324/Vrp-Set-Golden-n324-lkh/0.lkh1.tour" ... done
* 9: Cost = 0_79257, Time = 0.10 sec. 
Writing OUTPUT_TOUR_FILE: "baseline_results/cvrp_lkh/Vrp-Set-Golden-n324/Vrp-Set-Golden-n324-lkh/0.lkh1.tour" ... done
* 10: Cost = 0_79186, Time = 0.12 sec. 
Writing OUTPUT_TOUR_FILE: "baseline_results/cvrp_lkh/Vrp-Set-Golden-n324/Vrp-Set-Golden-n324-lkh/0.lkh1.tour" ... done
* 14: Cost = 0_78469, Time = 0.17 sec. 
Writing OUTPUT_TOUR_FILE: "baseline_results/cvrp_lkh/Vrp-Set-Golden-n324/Vrp-Set-Golden-n324-lkh/0.lkh1.tour" ... done
* 20: Cost = 0_78443, Time = 0.21 sec. 
Writing OUTPUT_TOUR_FILE: "baseline_results/cvrp_lkh/Vrp-Set-Golden-n324/Vrp-Set-Golden-n324-lkh/0.lkh1.tour" ... done
* 21: Cost = 0_78405, Time = 0.23 sec. 
Writing OUTPUT_TOUR_FILE: "baseline_results/cvrp_lkh/Vrp-Set-Golden-n324/Vrp-Set-Golden-n324-lkh/0.lkh1.tour" ... done
* 31: Cost = 0_78028, Time = 0.31 sec. 
Writing OUTPUT_TOUR_FILE: "baseline_results/cvrp_lkh/Vrp-Set-Golden-n324/Vrp-Set-Golden-n324-lkh/0.lkh1.tour" ... done
* 32: Cost = 0_77965, Time = 0.31 sec. 
Writing OUTPUT_TOUR_FILE: "baseline_results/cvrp_lkh/Vrp-Set-Golden-n324/Vrp-Set-Golden-n324-lkh/0.lkh1.tour" ... done
* 45: Cost = 0_77699, Time = 0.37 sec. 
Writing OUTPUT_TOUR_FILE: "baseline_results/cvrp_lkh/Vrp-Set-Golden-n324/Vrp-Set-Golden-n324-lkh/0.lkh1.tour" ... done
* 52: Cost = 0_77657, Time = 0.43 sec. 
Writing OUTPUT_TOUR_FILE: "baseline_results/cvrp_lkh/Vrp-Set-Golden-n324/Vrp-Set-Golden-n324-lkh/0.lkh1.tour" ... done
* 58: Cost = 0_77535, Time = 0.51 sec. 
Writing OUTPUT_TOUR_FILE: "baseline_results/cvrp_lkh/Vrp-Set-Golden-n324/Vrp-Set-Golden-n324-lkh/0.lkh1.tour" ... done
* 82: Cost = 0_77468, Time = 0.70 sec. 
Writing OUTPUT_TOUR_FILE: "baseline_results/cvrp_lkh/Vrp-Set-Golden-n324/Vrp-Set-Golden-n324-lkh/0.lkh1.tour" ... done
* 92: Cost = 0_77460, Time = 0.81 sec. 
Writing OUTPUT_TOUR_FILE: "baseline_results/cvrp_lkh/Vrp-Set-Golden-n324/Vrp-Set-Golden-n324-lkh/0.lkh1.tour" ... done
* 96: Cost = 0_77413, Time = 0.84 sec. 
Writing OUTPUT_TOUR_FILE: "baseline_results/cvrp_lkh/Vrp-Set-Golden-n324/Vrp-Set-Golden-n324-lkh/0.lkh1.tour" ... done
* 104: Cost = 0_77332, Time = 0.90 sec. 
Writing OUTPUT_TOUR_FILE: "baseline_results/cvrp_lkh/Vrp-Set-Golden-n324/Vrp-Set-Golden-n324-lkh/0.lkh1.tour" ... done
* 107: Cost = 0_77321, Time = 0.97 sec. 
Writing OUTPUT_TOUR_FILE: "baseline_results/cvrp_lkh/Vrp-Set-Golden-n324/Vrp-Set-Golden-n324-lkh/0.lkh1.tour" ... done
* 122: Cost = 0_77194, Time = 1.07 sec. 
Writing OUTPUT_TOUR_FILE: "baseline_results/cvrp_lkh/Vrp-Set-Golden-n324/Vrp-Set-Golden-n324-lkh/0.lkh1.tour" ... done
* 148: Cost = 0_77133, Time = 1.29 sec. 
Writing OUTPUT_TOUR_FILE: "baseline_results/cvrp_lkh/Vrp-Set-Golden-n324/Vrp-Set-Golden-n324-lkh/0.lkh1.tour" ... done
* 163: Cost = 0_76982, Time = 1.38 sec. 
Writing OUTPUT_TOUR_FILE: "baseline_results/cvrp_lkh/Vrp-Set-Golden-n324/Vrp-Set-Golden-n324-lkh/0.lkh1.tour" ... done
* 173: Cost = 0_76809, Time = 1.41 sec. 
Writing OUTPUT_TOUR_FILE: "baseline_results/cvrp_lkh/Vrp-Set-Golden-n324/Vrp-Set-Golden-n324-lkh/0.lkh1.tour" ... done
* 175: Cost = 0_76783, Time = 1.44 sec. 
Writing OUTPUT_TOUR_FILE: "baseline_results/cvrp_lkh/Vrp-Set-Golden-n324/Vrp-Set-Golden-n324-lkh/0.lkh1.tour" ... done
* 192: Cost = 0_76728, Time = 1.62 sec. 
Writing OUTPUT_TOUR_FILE: "baseline_results/cvrp_lkh/Vrp-Set-Golden-n324/Vrp-Set-Golden-n324-lkh/0.lkh1.tour" ... done
* 207: Cost = 0_76724, Time = 1.73 sec. 
Writing OUTPUT_TOUR_FILE: "baseline_results/cvrp_lkh/Vrp-Set-Golden-n324/Vrp-Set-Golden-n324-lkh/0.lkh1.tour" ... done
* 241: Cost = 0_76626, Time = 2.06 sec. 
Writing OUTPUT_TOUR_FILE: "baseline_results/cvrp_lkh/Vrp-Set-Golden-n324/Vrp-Set-Golden-n324-lkh/0.lkh1.tour" ... done
* 252: Cost = 0_76534, Time = 2.15 sec. 
Writing OUTPUT_TOUR_FILE: "baseline_results/cvrp_lkh/Vrp-Set-Golden-n324/Vrp-Set-Golden-n324-lkh/0.lkh1.tour" ... done
* 266: Cost = 0_76530, Time = 2.23 sec. 
Writing OUTPUT_TOUR_FILE: "baseline_results/cvrp_lkh/Vrp-Set-Golden-n324/Vrp-Set-Golden-n324-lkh/0.lkh1.tour" ... done
* 305: Cost = 0_76499, Time = 2.55 sec. 
Writing OUTPUT_TOUR_FILE: "baseline_results/cvrp_lkh/Vrp-Set-Golden-n324/Vrp-Set-Golden-n324-lkh/0.lkh1.tour" ... done
* 347: Cost = 0_76473, Time = 2.82 sec. 
Writing OUTPUT_TOUR_FILE: "baseline_results/cvrp_lkh/Vrp-Set-Golden-n324/Vrp-Set-Golden-n324-lkh/0.lkh1.tour" ... done
* 376: Cost = 0_76394, Time = 3.16 sec. 
Writing OUTPUT_TOUR_FILE: "baseline_results/cvrp_lkh/Vrp-Set-Golden-n324/Vrp-Set-Golden-n324-lkh/0.lkh1.tour" ... done
* 378: Cost = 0_76276, Time = 3.18 sec. 
Writing OUTPUT_TOUR_FILE: "baseline_results/cvrp_lkh/Vrp-Set-Golden-n324/Vrp-Set-Golden-n324-lkh/0.lkh1.tour" ... done
* 387: Cost = 0_76137, Time = 3.25 sec. 
Writing OUTPUT_TOUR_FILE: "baseline_results/cvrp_lkh/Vrp-Set-Golden-n324/Vrp-Set-Golden-n324-lkh/0.lkh1.tour" ... done
* 403: Cost = 0_76020, Time = 3.37 sec. 
Writing OUTPUT_TOUR_FILE: "baseline_results/cvrp_lkh/Vrp-Set-Golden-n324/Vrp-Set-Golden-n324-lkh/0.lkh1.tour" ... done
* 531: Cost = 0_75917, Time = 4.31 sec. 
Writing OUTPUT_TOUR_FILE: "baseline_results/cvrp_lkh/Vrp-Set-Golden-n324/Vrp-Set-Golden-n324-lkh/0.lkh1.tour" ... done
* 567: Cost = 0_75913, Time = 4.66 sec. 
Writing OUTPUT_TOUR_FILE: "baseline_results/cvrp_lkh/Vrp-Set-Golden-n324/Vrp-Set-Golden-n324-lkh/0.lkh1.tour" ... done
* 605: Cost = 0_75894, Time = 5.00 sec. 
Writing OUTPUT_TOUR_FILE: "baseline_results/cvrp_lkh/Vrp-Set-Golden-n324/Vrp-Set-Golden-n324-lkh/0.lkh1.tour" ... done
* 676: Cost = 0_75765, Time = 5.59 sec. 
Writing OUTPUT_TOUR_FILE: "baseline_results/cvrp_lkh/Vrp-Set-Golden-n324/Vrp-Set-Golden-n324-lkh/0.lkh1.tour" ... done
* 691: Cost = 0_75649, Time = 5.68 sec. 
Writing OUTPUT_TOUR_FILE: "baseline_results/cvrp_lkh/Vrp-Set-Golden-n324/Vrp-Set-Golden-n324-lkh/0.lkh1.tour" ... done
* 700: Cost = 0_75632, Time = 5.75 sec. 
Writing OUTPUT_TOUR_FILE: "baseline_results/cvrp_lkh/Vrp-Set-Golden-n324/Vrp-Set-Golden-n324-lkh/0.lkh1.tour" ... done
* 731: Cost = 0_75541, Time = 6.03 sec. 
Writing OUTPUT_TOUR_FILE: "baseline_results/cvrp_lkh/Vrp-Set-Golden-n324/Vrp-Set-Golden-n324-lkh/0.lkh1.tour" ... done
* 976: Cost = 0_75531, Time = 8.27 sec. 
Writing OUTPUT_TOUR_FILE: "baseline_results/cvrp_lkh/Vrp-Set-Golden-n324/Vrp-Set-Golden-n324-lkh/0.lkh1.tour" ... done
* 1019: Cost = 0_75489, Time = 8.67 sec. 
Writing OUTPUT_TOUR_FILE: "baseline_results/cvrp_lkh/Vrp-Set-Golden-n324/Vrp-Set-Golden-n324-lkh/0.lkh1.tour" ... done
* 1049: Cost = 0_75488, Time = 8.90 sec. 
Writing OUTPUT_TOUR_FILE: "baseline_results/cvrp_lkh/Vrp-Set-Golden-n324/Vrp-Set-Golden-n324-lkh/0.lkh1.tour" ... done
* 1059: Cost = 0_75421, Time = 8.93 sec. 
Writing OUTPUT_TOUR_FILE: "baseline_results/cvrp_lkh/Vrp-Set-Golden-n324/Vrp-Set-Golden-n324-lkh/0.lkh1.tour" ... done
* 1375: Cost = 0_75372, Time = 11.87 sec. 
Writing OUTPUT_TOUR_FILE: "baseline_results/cvrp_lkh/Vrp-Set-Golden-n324/Vrp-Set-Golden-n324-lkh/0.lkh1.tour" ... done
* 1559: Cost = 0_75274, Time = 13.55 sec. 
Writing OUTPUT_TOUR_FILE: "baseline_results/cvrp_lkh/Vrp-Set-Golden-n324/Vrp-Set-Golden-n324-lkh/0.lkh1.tour" ... done
* 1749: Cost = 0_75212, Time = 14.95 sec. 
Writing OUTPUT_TOUR_FILE: "baseline_results/cvrp_lkh/Vrp-Set-Golden-n324/Vrp-Set-Golden-n324-lkh/0.lkh1.tour" ... done
* 5998: Cost = 0_75208, Time = 50.16 sec. 
Writing OUTPUT_TOUR_FILE: "baseline_results/cvrp_lkh/Vrp-Set-Golden-n324/Vrp-Set-Golden-n324-lkh/0.lkh1.tour" ... done
Population:
  1: 0_75208
Run 1: Cost = 0_75208, Time = 87.52 sec. 

Successes/Runs = 0/1 
Cost.min = 75208, Cost.avg = 75208.00, Cost.max = 75208
Gap.min = 0.0000%, Gap.avg = 0.0000%, Gap.max = 0.0000%
Penalty.min = 0, Penalty.avg = 0.00, Penalty.max = 0
Trials.min = 10000, Trials.avg = 10000.0, Trials.max = 10000
Time.min = 87.52 sec., Time.avg = 87.52 sec., Time.max = 87.52 sec.
Time.total = 87.65 sec.
  Size.min = 2, Size.max = 34, Penalty = 0
  Cost.min = 564, Cost.max = 8551, Cost.sum = 75208
Best CVRP solution:
  Cost = 0_75208

