experiment/data/lkh-res/Vrp-Set-Golden-n324/Vrp-Set-Golden-n324-lkh/0.lkh1.tour
NAME : 0.75208.tour
COMMENT : Length = 75208
COMMENT : Found by LKH-3 [Keld Helsgaun] Tue Apr  9 02:04:50 2024
TYPE : TOUR
DIMENSION : 339
TOUR_SECTION
1
2
4
326
5
9
6
3
325
165
183
200
230
243
256
267
255
266
277
287
296
303
309
314
318
321
323
324
322
320
317
313
308
294
302
295
286
276
265
254
242
228
213
327
40
97
111
127
143
160
178
194
210
225
238
250
262
251
239
226
211
195
179
161
144
112
60
334
26
42
52
63
87
101
88
102
117
133
118
103
89
76
64
53
43
34
338
24
31
39
59
71
84
98
85
72
61
50
41
32
337
17
23
30
38
58
69
57
47
37
29
22
16
11
7
333
54
65
77
90
104
119
134
151
135
152
170
187
169
186
203
218
233
219
204
188
171
153
136
120
105
91
78
66
55
45
339
74
115
131
148
166
184
201
216
244
231
245
257
268
278
288
279
269
258
246
232
217
202
185
168
150
167
149
132
116
75
328
49
83
96
110
125
141
176
192
208
222
235
248
259
247
234
221
207
191
175
158
140
124
109
95
82
70
48
336
46
56
67
79
92
106
121
137
154
172
189
205
220
206
190
173
155
138
156
174
157
139
122
107
123
108
93
80
94
81
68
329
8
12
18
25
33
19
13
330
62
86
100
114
130
147
164
182
199
215
229
214
198
181
163
146
129
99
73
51
332
126
177
209
224
237
261
272
282
273
283
291
299
305
311
316
319
315
310
304
298
290
297
289
281
271
280
270
260
249
236
223
193
159
142
335
14
20
27
35
44
36
28
21
15
10
331
128
162
196
212
240
252
263
274
284
292
300
306
312
307
301
293
285
275
264
253
241
227
197
180
145
113
-1
EOF
